RAW/XX/fspd-mid/X-n139-k10.vrp_seed-4.out
11259	34.717	165.351
