RAW/XX/fspd-mid/X-n139-k10.vrp_seed-4.sol
Route #1: 3 98 54 75 111 105 82 106 77 43 46 55 18 1 21 103 28 63 138 122 76 56
Route #2: 7 30 84 51 39 8 15 65 48 60 42 67 100 102 14 135 33 86 81 71 91
Route #3: 124 88 70 62 4 23 26 9 137 114 24 85 118 32 16
Route #4: 79 121 73 120 78 133 64 127 130 93 132 107 92 41 80 31 97 13 58 35 110 109 45 20
Route #5: 95 126 52 87 99 2 49 12 66 19 61 59 134 40 37 17 11 47 119 128 101 116 68 83 136 104 89
Route #6: 29 57 44 72 117 90 113 6 5 96 53 129 36 125 25 112 22 108 94 69 38 131 34 115 27 123 50 74 10
Cost 11259.000000